p edge 420 419
e 1 341
e 1 307
e 2 322
e 2 195
e 2 200
e 3 328
e 4 97
e 4 113
e 4 37
e 5 58
e 6 308
e 6 349
e 7 13
e 8 277
e 8 48
e 9 380
e 10 251
e 10 58
e 11 376
e 11 302
e 12 141
e 13 126
e 14 70
e 14 288
e 15 115
e 16 60
e 16 48
e 17 54
e 17 226
e 17 382
e 17 170
e 18 72
e 19 378
e 20 53
e 21 305
e 21 318
e 22 347
e 23 148
e 23 374
e 24 176
e 24 339
e 25 286
e 25 57
e 26 51
e 26 416
e 26 300
e 27 380
e 28 374
e 28 345
e 29 224
e 29 118
e 30 347
e 30 112
e 30 415
e 30 81
e 30 261
e 31 324
e 31 206
e 31 85
e 32 400
e 32 278
e 32 383
e 33 298
e 33 116
e 33 174
e 34 138
e 34 109
e 35 118
e 35 418
e 35 346
e 36 173
e 36 351
e 36 96
e 36 305
e 37 197
e 37 170
e 37 264
e 38 385
e 38 420
e 39 128
e 39 227
e 40 280
e 41 157
e 41 149
e 41 291
e 41 44
e 42 261
e 42 318
e 42 215
e 43 45
e 44 375
e 45 303
e 46 217
e 47 253
e 47 387
e 48 53
e 48 386
e 49 397
e 49 50
e 50 140
e 50 338
e 51 399
e 51 282
e 52 120
e 52 195
e 53 132
e 55 329
e 55 321
e 56 404
e 56 128
e 57 79
e 58 175
e 58 186
e 59 310
e 59 350
e 61 112
e 62 232
e 62 207
e 62 292
e 63 120
e 64 156
e 64 194
e 65 355
e 65 66
e 66 338
e 67 259
e 68 391
e 68 203
e 68 344
e 69 309
e 71 281
e 71 261
e 72 256
e 72 230
e 72 217
e 73 102
e 74 255
e 74 136
e 75 367
e 76 333
e 77 360
e 78 280
e 79 102
e 79 192
e 80 119
e 80 250
e 80 98
e 81 223
e 81 272
e 82 104
e 82 288
e 82 406
e 83 332
e 83 277
e 84 185
e 84 126
e 84 237
e 85 358
e 85 195
e 86 122
e 86 209
e 87 215
e 88 202
e 88 274
e 89 113
e 90 230
e 91 302
e 92 327
e 92 260
e 93 143
e 94 407
e 94 143
e 95 415
e 96 417
e 98 396
e 98 99
e 98 152
e 99 171
e 99 405
e 100 389
e 101 413
e 102 312
e 103 354
e 103 366
e 105 134
e 105 343
e 106 358
e 107 217
e 108 189
e 108 344
e 109 241
e 109 361
e 109 277
e 110 389
e 110 247
e 110 206
e 111 130
e 111 391
e 112 152
e 113 216
e 113 280
e 113 302
e 114 175
e 115 143
e 116 372
e 117 177
e 117 396
e 118 284
e 118 381
e 120 179
e 121 346
e 121 207
e 122 264
e 122 386
e 123 158
e 123 161
e 123 136
e 124 348
e 124 291
e 125 393
e 125 402
e 126 208
e 127 259
e 127 370
e 127 292
e 127 297
e 128 237
e 129 306
e 129 284
e 131 173
e 133 195
e 134 419
e 135 267
e 135 326
e 135 257
e 136 145
e 136 359
e 136 200
e 136 203
e 137 190
e 137 315
e 137 394
e 138 234
e 139 212
e 139 328
e 141 184
e 142 177
e 143 180
e 143 384
e 143 237
e 144 310
e 146 414
e 147 233
e 147 217
e 149 178
e 150 236
e 151 163
e 151 319
e 151 223
e 153 321
e 153 328
e 154 331
e 154 235
e 155 275
e 158 342
e 159 283
e 160 366
e 160 205
e 161 383
e 161 367
e 162 229
e 162 239
e 162 268
e 162 235
e 162 385
e 164 322
e 165 317
e 166 307
e 166 251
e 167 219
e 167 394
e 168 186
e 169 296
e 172 361
e 174 373
e 174 410
e 175 317
e 181 233
e 182 188
e 182 221
e 182 217
e 183 326
e 184 187
e 186 279
e 186 414
e 187 190
e 191 360
e 192 333
e 192 225
e 193 350
e 194 332
e 195 210
e 196 198
e 196 306
e 198 301
e 199 312
e 201 326
e 203 248
e 204 374
e 205 276
e 205 344
e 206 231
e 207 401
e 209 395
e 209 249
e 211 398
e 211 240
e 213 353
e 214 286
e 215 337
e 217 294
e 217 311
e 217 357
e 218 351
e 220 274
e 220 299
e 221 338
e 222 398
e 225 265
e 227 414
e 228 413
e 230 275
e 232 265
e 233 320
e 233 412
e 235 254
e 236 291
e 238 368
e 240 303
e 240 374
e 242 336
e 243 296
e 243 394
e 243 414
e 244 356
e 244 282
e 245 300
e 245 258
e 246 256
e 247 249
e 249 349
e 249 388
e 250 368
e 252 330
e 253 283
e 257 391
e 258 272
e 260 328
e 260 312
e 262 382
e 263 288
e 266 276
e 268 290
e 269 383
e 270 300
e 271 304
e 271 360
e 271 311
e 272 340
e 273 353
e 273 393
e 275 313
e 275 406
e 277 390
e 277 334
e 278 377
e 282 408
e 284 378
e 285 402
e 285 339
e 287 322
e 289 349
e 290 299
e 293 371
e 293 296
e 295 306
e 297 413
e 297 305
e 299 337
e 302 379
e 309 370
e 314 385
e 316 329
e 323 370
e 324 363
e 325 369
e 330 391
e 331 335
e 331 344
e 333 369
e 334 409
e 335 345
e 336 399
e 339 368
e 343 387
e 343 367
e 350 418
e 352 390
e 354 365
e 357 375
e 362 387
e 363 380
e 364 374
e 371 392
e 373 403
e 375 402
e 377 414
e 402 410
e 402 411
